(declare-fun var0 () String)
(assert (RegexIn var0 (RegexConcat (RegexPlus (RegexPlus (Str2Reg "DDD"))) (RegexConcat (RegexPlus (RegexUnion (Str2Reg "BBB") (Str2Reg "CC"))) (RegexConcat (RegexPlus (RegexUnion (Str2Reg "zz") (Str2Reg "AAA"))) (RegexConcat (RegexPlus (RegexUnion (Str2Reg "xxx") (Str2Reg "y"))) (RegexConcat (RegexUnion (RegexStar (Str2Reg "vvv")) (RegexPlus (Str2Reg "w"))) (RegexConcat (RegexPlus (RegexUnion (Str2Reg "tt") (Str2Reg "u"))) (RegexConcat (RegexUnion (RegexUnion (Str2Reg "q") (Str2Reg "rrr")) (RegexStar (Str2Reg "ss"))) (RegexConcat (RegexStar (RegexUnion (Str2Reg "o") (Str2Reg "ppp"))) (RegexConcat (RegexUnion (RegexStar (Str2Reg "mmm")) (RegexStar (Str2Reg "nnn"))) (RegexConcat (RegexStar (RegexPlus (Str2Reg "lll"))) (RegexConcat (RegexPlus (RegexUnion (Str2Reg "jj") (Str2Reg "kk"))) (RegexConcat (RegexPlus (RegexStar (Str2Reg "i"))) (RegexConcat (RegexUnion (RegexStar (Str2Reg "g")) (RegexPlus (Str2Reg "h"))) (RegexConcat (RegexUnion (RegexStar (Str2Reg "dd")) (RegexUnion (Str2Reg "e") (Str2Reg "ff"))) (RegexConcat (RegexPlus (RegexPlus (Str2Reg "cc"))) (RegexConcat (RegexUnion (RegexStar (Str2Reg "aa")) (RegexPlus (Str2Reg "bb"))) (RegexConcat (RegexUnion (RegexUnion (Str2Reg "7") (Str2Reg "888")) (RegexPlus (Str2Reg "999"))) (RegexConcat (RegexStar (RegexStar (Str2Reg "666"))) (RegexConcat (RegexUnion (RegexStar (Str2Reg "44")) (RegexStar (Str2Reg "55"))) (RegexConcat (RegexPlus (RegexUnion (Str2Reg "222") (Str2Reg "3"))) (RegexConcat (RegexUnion (RegexUnion (Str2Reg "~~~") (Str2Reg "00")) (RegexPlus (Str2Reg "11"))) (RegexConcat (RegexPlus (RegexStar (Str2Reg "}}"))) (RegexConcat (RegexPlus (RegexPlus (Str2Reg "||"))) (RegexConcat (RegexStar (RegexUnion (Str2Reg "`") (Str2Reg "{{{"))) (RegexConcat (RegexPlus (RegexUnion (Str2Reg "^") (Str2Reg "___"))) (RegexConcat (RegexStar (RegexUnion (Str2Reg "\\") (Str2Reg "]"))) (RegexConcat (RegexPlus (RegexStar (Str2Reg "["))) (RegexConcat (RegexPlus (RegexPlus (Str2Reg "@"))) (RegexConcat (RegexPlus (RegexStar (Str2Reg "??"))) (RegexConcat (RegexPlus (RegexUnion (Str2Reg "===") (Str2Reg ">>>"))) (RegexConcat (RegexUnion (RegexPlus (Str2Reg ";;")) (RegexPlus (Str2Reg "<<<"))) (RegexConcat (RegexUnion (RegexUnion (Str2Reg "-") (Str2Reg "..")) (RegexUnion (Str2Reg "//") (Str2Reg "::"))) (RegexConcat (RegexUnion (RegexUnion (Str2Reg "**") (Str2Reg "+++")) (RegexPlus (Str2Reg ","))) (RegexConcat (RegexPlus (RegexPlus (Str2Reg ")))"))) (RegexConcat (RegexUnion (RegexPlus (Str2Reg "'")) (RegexPlus (Str2Reg "("))) (RegexConcat (RegexUnion (RegexUnion (Str2Reg "$$$") (Str2Reg "%%")) (RegexStar (Str2Reg "&"))) (RegexConcat (RegexPlus (RegexPlus (Str2Reg "###"))) (RegexConcat (RegexStar (RegexPlus (Str2Reg "\""))) (RegexConcat (RegexPlus (RegexPlus (Str2Reg "!!"))) (RegexConcat (RegexPlus (RegexPlus (Str2Reg "ZZ"))) (RegexConcat (RegexUnion (RegexUnion (Str2Reg "WW") (Str2Reg "XX")) (RegexStar (Str2Reg "YYY"))) (RegexConcat (RegexStar (RegexStar (Str2Reg "VV"))) (RegexConcat (RegexUnion (RegexPlus (Str2Reg "T")) (RegexPlus (Str2Reg "U"))) (RegexConcat (RegexPlus (RegexPlus (Str2Reg "SS"))) (RegexConcat (RegexPlus (RegexPlus (Str2Reg "RR"))) (RegexConcat (RegexPlus (RegexPlus (Str2Reg "Q"))) (RegexConcat (RegexStar (RegexStar (Str2Reg "P"))) (RegexConcat (RegexStar (RegexStar (Str2Reg "O"))) (RegexConcat (RegexUnion (RegexUnion (Str2Reg "K") (Str2Reg "LL")) (RegexUnion (Str2Reg "MMM") (Str2Reg "NN"))) (RegexConcat (RegexPlus (RegexPlus (Str2Reg "JJ"))) (RegexConcat (RegexPlus (RegexStar (Str2Reg "I"))) (RegexConcat (RegexPlus (RegexUnion (Str2Reg "GGG") (Str2Reg "H"))) (RegexConcat (RegexUnion (RegexPlus (Str2Reg "DDD")) (RegexUnion (Str2Reg "E") (Str2Reg "FF"))) (RegexConcat (RegexPlus (RegexUnion (Str2Reg "B") (Str2Reg "CC"))) (RegexConcat (RegexUnion (RegexStar (Str2Reg "zzz")) (RegexStar (Str2Reg "A"))) (RegexConcat (RegexStar (RegexStar (Str2Reg "y"))) (RegexConcat (RegexPlus (RegexPlus (Str2Reg "x"))) (RegexConcat (RegexStar (RegexStar (Str2Reg "ww"))) (RegexConcat (RegexPlus (RegexPlus (Str2Reg "vv"))) (RegexConcat (RegexPlus (RegexStar (Str2Reg "uu"))) (RegexConcat (RegexStar (RegexUnion (Str2Reg "s") (Str2Reg "t"))) (RegexConcat (RegexStar (RegexPlus (Str2Reg "rrr"))) (RegexConcat (RegexStar (RegexUnion (Str2Reg "p") (Str2Reg "q"))) (RegexConcat (RegexPlus (RegexPlus (Str2Reg "oo"))) (RegexConcat (RegexStar (RegexPlus (Str2Reg "n"))) (RegexConcat (RegexUnion (RegexUnion (Str2Reg "kkk") (Str2Reg "lll")) (RegexPlus (Str2Reg "mmm"))) (RegexConcat (RegexStar (RegexUnion (Str2Reg "i") (Str2Reg "jjj"))) (RegexConcat (RegexUnion (RegexUnion (Str2Reg "f") (Str2Reg "ggg")) (RegexPlus (Str2Reg "hhh"))) (RegexConcat (RegexStar (RegexPlus (Str2Reg "e"))) (RegexConcat (RegexStar (RegexUnion (Str2Reg "c") (Str2Reg "dd"))) (RegexConcat (RegexStar (RegexStar (Str2Reg "b"))) (RegexConcat (RegexUnion (RegexUnion (Str2Reg "888") (Str2Reg "999")) (RegexPlus (Str2Reg "aa"))) (RegexConcat (RegexPlus (RegexPlus (Str2Reg "7"))) (RegexConcat (RegexUnion (RegexUnion (Str2Reg "44") (Str2Reg "555")) (RegexStar (Str2Reg "666"))) (RegexConcat (RegexPlus (RegexStar (Str2Reg "333"))) (RegexConcat (RegexUnion (RegexPlus (Str2Reg "111")) (RegexStar (Str2Reg "222"))) (RegexConcat (RegexStar (RegexPlus (Str2Reg "00"))) (RegexConcat (RegexStar (RegexUnion (Str2Reg "}}}") (Str2Reg "~~"))) (RegexConcat (RegexStar (RegexStar (Str2Reg "|"))) (RegexConcat (RegexStar (RegexPlus (Str2Reg "{"))) (RegexConcat (RegexStar (RegexUnion (Str2Reg "___") (Str2Reg "```"))) (RegexConcat (RegexPlus (RegexStar (Str2Reg "^^"))) (RegexConcat (RegexUnion (RegexStar (Str2Reg "\\")) (RegexStar (Str2Reg "]]"))) (RegexConcat (RegexStar (RegexStar (Str2Reg "[[["))) (RegexConcat (RegexPlus (RegexStar (Str2Reg "@@"))) (RegexConcat (RegexStar (RegexUnion (Str2Reg ">>") (Str2Reg "???"))) (RegexConcat (RegexUnion (RegexUnion (Str2Reg ":::") (Str2Reg ";;;")) (RegexUnion (Str2Reg "<<<") (Str2Reg "=="))) (RegexConcat (RegexStar (RegexStar (Str2Reg "///"))) (RegexConcat (RegexUnion (RegexStar (Str2Reg ",,,")) (RegexUnion (Str2Reg "-") (Str2Reg "."))) (RegexConcat (RegexUnion (RegexPlus (Str2Reg "*")) (RegexPlus (Str2Reg "++"))) (RegexConcat (RegexPlus (RegexPlus (Str2Reg ")))"))) (RegexConcat (RegexStar (RegexPlus (Str2Reg "(("))) (RegexConcat (RegexPlus (RegexStar (Str2Reg "''"))) (RegexConcat (RegexPlus (RegexPlus (Str2Reg "&&"))) (RegexConcat (RegexUnion (RegexPlus (Str2Reg "#")) (RegexUnion (Str2Reg "$$") (Str2Reg "%%"))) (RegexConcat (RegexUnion (RegexUnion (Str2Reg "ZZ") (Str2Reg "!!")) (RegexPlus (Str2Reg "\"\"\""))) (RegexConcat (RegexUnion (RegexStar (Str2Reg "WWW")) (RegexUnion (Str2Reg "XXX") (Str2Reg "YY"))) (RegexConcat (RegexUnion (RegexUnion (Str2Reg "TT") (Str2Reg "UU")) (RegexStar (Str2Reg "VV"))) (RegexConcat (RegexStar (RegexStar (Str2Reg "SS"))) (RegexConcat (RegexStar (RegexPlus (Str2Reg "RR"))) (RegexConcat (RegexStar (RegexPlus (Str2Reg "Q"))) (RegexConcat (RegexStar (RegexStar (Str2Reg "PP"))) (RegexConcat (RegexStar (RegexStar (Str2Reg "O"))) (RegexConcat (RegexStar (RegexStar (Str2Reg "NN"))) (RegexConcat (RegexPlus (RegexStar (Str2Reg "MMM"))) (RegexConcat (RegexUnion (RegexUnion (Str2Reg "JJJ") (Str2Reg "K")) (RegexStar (Str2Reg "L"))) (RegexConcat (RegexUnion (RegexPlus (Str2Reg "GGG")) (RegexUnion (Str2Reg "HH") (Str2Reg "II"))) (RegexConcat (RegexPlus (RegexUnion (Str2Reg "EEE") (Str2Reg "F"))) (RegexConcat (RegexStar (RegexStar (Str2Reg "DD"))) (RegexConcat (RegexPlus (RegexStar (Str2Reg "CC"))) (RegexConcat (RegexUnion (RegexPlus (Str2Reg "AA")) (RegexStar (Str2Reg "B"))) (RegexConcat (RegexStar (RegexUnion (Str2Reg "yyy") (Str2Reg "zzz"))) (RegexConcat (RegexPlus (RegexUnion (Str2Reg "w") (Str2Reg "xx"))) (RegexConcat (RegexPlus (RegexUnion (Str2Reg "uu") (Str2Reg "v"))) (RegexConcat (RegexPlus (RegexUnion (Str2Reg "ss") (Str2Reg "tt"))) (RegexConcat (RegexPlus (RegexStar (Str2Reg "r"))) (RegexConcat (RegexUnion (RegexUnion (Str2Reg "ooo") (Str2Reg "pp")) (RegexStar (Str2Reg "qqq"))) (RegexConcat (RegexStar (RegexPlus (Str2Reg "n"))) (RegexConcat (RegexUnion (RegexUnion (Str2Reg "k") (Str2Reg "l")) (RegexStar (Str2Reg "mmm"))) (RegexConcat (RegexStar (RegexUnion (Str2Reg "i") (Str2Reg "jjj"))) (RegexConcat (RegexStar (RegexPlus (Str2Reg "hhh"))) (RegexConcat (RegexStar (RegexUnion (Str2Reg "f") (Str2Reg "g"))) (RegexConcat (RegexUnion (RegexPlus (Str2Reg "c")) (RegexUnion (Str2Reg "dd") (Str2Reg "ee"))) (RegexConcat (RegexPlus (RegexStar (Str2Reg "bb"))) (RegexConcat (RegexStar (RegexStar (Str2Reg "aa"))) (RegexConcat (RegexStar (RegexPlus (Str2Reg "9"))) (RegexConcat (RegexStar (RegexPlus (Str2Reg "888"))) (RegexConcat (RegexPlus (RegexStar (Str2Reg "77"))) (RegexConcat (RegexUnion (RegexUnion (Str2Reg "4") (Str2Reg "5")) (RegexPlus (Str2Reg "6"))) (RegexConcat (RegexStar (RegexPlus (Str2Reg "33"))) (RegexConcat (RegexUnion (RegexUnion (Str2Reg "000") (Str2Reg "11")) (RegexStar (Str2Reg "222"))) (RegexConcat (RegexStar (RegexStar (Str2Reg "~"))) (RegexConcat (RegexStar (RegexUnion (Str2Reg "|||") (Str2Reg "}"))) (RegexConcat (RegexStar (RegexStar (Str2Reg "{{"))) (RegexConcat (RegexUnion (RegexUnion (Str2Reg "^^^") (Str2Reg "_")) (RegexPlus (Str2Reg "``"))) (RegexConcat (RegexStar (RegexUnion (Str2Reg "\\\\\\") (Str2Reg "]"))) (RegexConcat (RegexStar (RegexPlus (Str2Reg "[["))) (RegexConcat (RegexUnion (RegexStar (Str2Reg ">>>")) (RegexUnion (Str2Reg "???") (Str2Reg "@@"))) (RegexConcat (RegexPlus (RegexStar (Str2Reg "="))) (RegexConcat (RegexPlus (RegexUnion (Str2Reg ";;;") (Str2Reg "<"))) (RegexConcat (RegexUnion (RegexPlus (Str2Reg "/")) (RegexPlus (Str2Reg ":"))) (RegexConcat (RegexPlus (RegexUnion (Str2Reg "-") (Str2Reg "..."))) (RegexConcat (RegexStar (RegexStar (Str2Reg ",,"))) (RegexConcat (RegexStar (RegexStar (Str2Reg "++"))) (RegexConcat (RegexPlus (RegexPlus (Str2Reg "**"))) (RegexConcat (RegexStar (RegexPlus (Str2Reg ")))"))) (RegexConcat (RegexUnion (RegexUnion (Str2Reg "&&") (Str2Reg "'")) (RegexPlus (Str2Reg "("))) (RegexConcat (RegexPlus (RegexPlus (Str2Reg "%%"))) (RegexConcat (RegexStar (RegexPlus (Str2Reg "$$$"))) (RegexConcat (RegexUnion (RegexStar (Str2Reg "!!!")) (RegexUnion (Str2Reg "\"\"\"") (Str2Reg "##"))) (RegexConcat (RegexStar (RegexUnion (Str2Reg "YYY") (Str2Reg "ZZ"))) (RegexConcat (RegexPlus (RegexStar (Str2Reg "X"))) (RegexConcat (RegexUnion (RegexStar (Str2Reg "VVV")) (RegexStar (Str2Reg "WWW"))) (RegexConcat (RegexStar (RegexUnion (Str2Reg "TT") (Str2Reg "U"))) (RegexConcat (RegexStar (RegexStar (Str2Reg "SS"))) (RegexConcat (RegexUnion (RegexPlus (Str2Reg "P")) (RegexUnion (Str2Reg "QQQ") (Str2Reg "RR"))) (RegexConcat (RegexUnion (RegexStar (Str2Reg "MMM")) (RegexUnion (Str2Reg "NNN") (Str2Reg "OOO"))) (RegexConcat (RegexUnion (RegexPlus (Str2Reg "KK")) (RegexPlus (Str2Reg "LLL"))) (RegexConcat (RegexStar (RegexStar (Str2Reg "JJ"))) (RegexConcat (RegexStar (RegexUnion (Str2Reg "HHH") (Str2Reg "II"))) (RegexConcat (RegexUnion (RegexPlus (Str2Reg "FF")) (RegexStar (Str2Reg "GG"))) (RegexConcat (RegexStar (RegexUnion (Str2Reg "DD") (Str2Reg "EEE"))) (RegexConcat (RegexPlus (RegexPlus (Str2Reg "CCC"))) (RegexConcat (RegexPlus (RegexStar (Str2Reg "B"))) (RegexConcat (RegexUnion (RegexUnion (Str2Reg "y") (Str2Reg "zzz")) (RegexPlus (Str2Reg "A"))) (RegexConcat (RegexPlus (RegexUnion (Str2Reg "www") (Str2Reg "xxx"))) (RegexConcat (RegexUnion (RegexStar (Str2Reg "uuu")) (RegexStar (Str2Reg "vv"))) (RegexConcat (RegexStar (RegexUnion (Str2Reg "sss") (Str2Reg "ttt"))) (RegexConcat (RegexUnion (RegexStar (Str2Reg "ppp")) (RegexUnion (Str2Reg "qqq") (Str2Reg "r"))) (RegexConcat (RegexUnion (RegexPlus (Str2Reg "mmm")) (RegexUnion (Str2Reg "nn") (Str2Reg "oo"))) (RegexConcat (RegexPlus (RegexUnion (Str2Reg "k") (Str2Reg "ll"))) (RegexConcat (RegexPlus (RegexUnion (Str2Reg "iii") (Str2Reg "j"))) (RegexConcat (RegexStar (RegexPlus (Str2Reg "hh"))) (RegexConcat (RegexUnion (RegexPlus (Str2Reg "f")) (RegexPlus (Str2Reg "ggg"))) (RegexConcat (RegexUnion (RegexPlus (Str2Reg "ddd")) (RegexStar (Str2Reg "e"))) (RegexConcat (RegexPlus (RegexUnion (Str2Reg "bb") (Str2Reg "c"))) (RegexConcat (RegexPlus (RegexPlus (Str2Reg "aa"))) (RegexConcat (RegexStar (RegexUnion (Str2Reg "8") (Str2Reg "99"))) (RegexConcat (RegexPlus (RegexStar (Str2Reg "777"))) (RegexConcat (RegexStar (RegexUnion (Str2Reg "55") (Str2Reg "6"))) (RegexConcat (RegexPlus (RegexPlus (Str2Reg "444"))) (RegexConcat (RegexPlus (RegexUnion (Str2Reg "2") (Str2Reg "333"))) (RegexPlus (RegexUnion (Str2Reg "0") (Str2Reg "11")))))))))))))))))))))))))))))))))))))))))))))))))))))))))))))))))))))))))))))))))))))))))))))))))))))))))))))))))))))))))))))))))))))))))))))))))))))))))))))))))))))))))))))))))))))))))))
(check-sat)